NAME: RGB
TYPE: TSP
COMMENT: 3d RGB data
DIMENSION: 8
EDGE_WEIGHT_TYPE: GEO
EDGE_WEIGHT_FORMAT: FUNCTION 
DISPLAY_DATA_TYPE: COORD_DISPLAY
NODE_COORD_SECTION
   7  255.0       255.0      255.0
   0  0.0         0.0        0.0
   1  255.0       0.0        0.0
   2  0.0         255.0      0.0
   3  0.0         0.0        255.0
   4  0.0         128.0      128.0
   5  128.0       0.0        128.0
   6  128.0       128.0      0.0
EOF



